<number of tasks>
89

<cycle time>
13

<task times>
1 1
2 2
3 3
4 4
5 5
6 6
7 7
8 8
9 9
10 10
11 1
12 2
13 3
14 4
15 5
16 6
17 7
18 8
19 9
20 10
21 1
22 2
23 3
24 4
25 5
26 6
27 7
28 8
29 9
30 10
31 1
32 2
33 3
34 4
35 5
36 6
37 7
38 8
39 9
40 10
41 1
42 2
43 3
44 4
45 5
46 6
47 7
48 8
49 9
50 10
51 1
52 2
53 3
54 4
55 5
56 6
57 7
58 8
59 9
60 10
61 1
62 2
63 3
64 4
65 5
66 6
67 7
68 8
69 9
70 10
71 1
72 2
73 3
74 4
75 5
76 6
77 7
78 8
79 9
80 10
81 1
82 2
83 3
84 4
85 5
86 6
87 7
88 8
89 9

<precedence relations>
1,2
2,3
3,4
4,5
4,6
4,7
4,8
4,9
5,10
6,11
7,12
8,18
9,18
10,14
11,12
12,13
13,14
14,15
14,16
15,17
16,54
17,18
18,19
18,20
19,22
20,21
20,28
21,54
22,23
23,24
24,25
25,26
25,27
25,29
26,37
27,33
28,29
29,31
30,54
31,32
32,33
33,34
34,35
35,36
35,37
36,38
37,38
38,39
39,40
39,41
39,42
39,43
40,44
41,53
42,53
43,45
44,52
45,46
46,47
47,48
47,49
49,50
50,51
51,52
52,53
53,68
53,69
53,70
53,71
54,55
55,56
56,57
57,58
57,59
57,60
57,61
57,62
57,63
57,64
57,65
57,66
58,67
59,67
60,67
61,67
62,67
63,67
64,67
65,67
66,67
67,73
68,72
69,72
70,72
71,73
72,78
72,80
73,74
74,75
74,76
75,77
76,81
77,78
78,79
79,81
80,81
81,82
81,84
81,85
82,83
83,86
84,86
85,86
86,87
87,88
87,89

<setup times forward>
2,3:1
3,30:1
4,6:2
4,7:2
4,8:2
4,9:1
4,30:1
5,6:2
5,7:2
5,8:2
5,9:1
5,10:1
5,11:1
5,12:1
5,13:1
5,30:1
6,5:2
6,9:1
6,10:1
6,11:1
6,30:1
7,5:2
7,9:1
7,10:1
7,11:1
7,12:1
7,30:1
8,5:2
8,9:1
8,10:1
8,11:1
8,12:1
8,13:1
8,15:1
8,16:1
8,17:1
8,18:1
8,30:1
9,5:1
9,6:1
9,7:1
9,8:1
9,14:1
9,16:2
9,18:2
10,6:1
10,7:1
10,8:1
10,14:1
11,5:1
11,7:1
11,8:1
12,5:1
12,8:1
13,5:1
13,8:1
13,14:1
14,9:1
14,15:1
14,16:1
14,30:1
15,8:1
15,16:2
16,8:1
16,9:2
16,15:2
16,17:2
16,19:1
16,20:3
16,21:3
16,22:1
16,25:2
16,26:3
16,27:3
16,28:2
16,29:2
16,30:2
16,31:3
16,35:3
16,36:1
16,37:1
16,38:2
16,39:3
16,40:3
16,41:1
16,42:1
16,43:3
16,44:1
16,45:3
16,49:1
16,54:2
16,68:3
16,69:2
16,72:3
16,80:3
17,8:1
17,16:2
17,18:2
18,19:1
18,20:3
18,30:2
19,16:1
19,20:2
19,21:2
19,28:1
19,30:1
19,54:1
19,55:2
19,56:1
19,57:1
19,58:2
19,59:1
19,61:2
19,62:2
19,63:2
19,64:1
19,65:1
19,66:1
19,67:1
20,16:3
20,19:2
20,22:2
20,23:3
20,24:3
20,25:1
20,28:1
20,30:1
21,16:3
21,19:2
21,22:2
21,23:3
21,24:3
21,25:1
21,28:1
21,29:1
21,30:1
21,32:3
21,33:3
21,34:3
21,36:2
21,37:2
21,38:1
21,41:2
21,42:2
21,44:2
21,46:3
21,47:3
21,48:3
21,49:2
21,50:3
21,51:3
21,52:3
21,53:3
21,54:1
21,69:1
21,70:3
21,71:3
22,16:1
22,20:2
22,21:2
22,23:1
22,28:1
22,30:1
22,54:1
22,55:2
22,56:1
22,57:1
22,58:2
22,59:1
22,61:2
22,62:2
22,63:2
22,64:1
22,65:1
22,66:1
22,67:1
23,20:3
23,21:3
23,28:2
23,30:2
23,54:2
23,55:3
23,58:3
23,60:1
23,61:3
23,62:3
23,63:3
23,65:2
23,66:2
23,67:2
24,20:3
24,21:3
24,25:2
24,28:2
24,30:2
24,54:2
24,55:3
24,58:3
24,60:1
24,61:3
24,62:3
24,63:3
24,65:2
24,66:2
24,67:2
25,16:2
25,20:1
25,21:1
25,26:1
25,27:1
25,55:1
25,56:2
25,57:2
25,58:1
25,59:2
25,60:1
25,61:1
25,62:1
25,63:1
25,64:2
26,16:3
26,28:1
26,29:1
26,30:1
26,32:3
26,33:3
26,34:3
26,36:2
26,37:2
26,54:1
26,56:3
26,57:3
26,59:3
26,60:2
26,64:3
26,65:1
26,66:1
26,67:1
27,16:3
27,28:1
27,29:1
27,30:1
27,32:3
27,33:3
27,54:1
27,56:3
27,57:3
27,59:3
27,60:2
27,64:3
27,65:1
27,66:1
27,67:1
28,16:2
28,19:1
28,21:1
28,22:1
28,23:2
28,24:2
28,26:1
28,27:1
28,55:1
28,56:2
28,57:2
28,58:1
28,59:2
28,60:1
28,61:1
28,62:1
28,63:1
28,64:2
29,16:2
29,21:1
29,26:1
29,27:1
29,31:1
29,55:1
29,56:2
29,57:2
29,58:1
29,59:2
29,60:1
29,61:1
29,62:1
29,63:1
29,64:2
30,3:1
30,4:1
30,5:1
30,6:1
30,7:1
30,8:1
30,14:1
30,16:2
30,18:2
30,19:1
30,20:1
30,21:1
30,22:1
30,23:2
30,24:2
30,26:1
30,27:1
30,31:1
30,32:2
30,33:2
30,34:2
30,35:1
30,36:1
30,37:1
30,39:1
30,40:1
30,41:1
30,42:1
30,43:1
30,44:1
30,45:1
30,46:2
30,47:2
30,48:2
30,49:1
30,50:2
30,51:2
30,52:2
30,53:2
30,68:1
30,70:2
30,71:2
30,72:1
30,80:1
31,16:3
31,30:1
31,32:3
31,54:1
31,56:3
31,57:3
31,59:3
31,60:2
31,64:3
31,65:1
31,66:1
31,67:1
32,21:3
32,26:3
32,27:3
32,30:2
32,54:2
32,55:3
32,58:3
32,60:1
32,61:3
32,62:3
32,63:3
32,65:2
32,66:2
32,67:2
33,21:3
33,26:3
33,30:2
33,54:2
33,55:3
33,58:3
33,60:1
33,61:3
33,62:3
33,63:3
33,65:2
33,66:2
33,67:2
34,21:3
34,26:3
34,30:2
34,35:3
34,54:2
34,55:3
34,58:3
34,60:1
34,61:3
34,62:3
34,63:3
34,65:2
34,66:2
34,67:2
35,16:3
35,30:1
35,36:2
35,37:2
35,54:1
35,56:3
35,57:3
35,59:3
35,60:2
35,64:3
35,65:1
35,66:1
35,67:1
36,16:1
36,21:2
36,26:2
36,30:1
36,38:1
36,54:1
36,55:2
36,56:1
36,57:1
36,58:2
36,59:1
36,61:2
36,62:2
36,63:2
36,64:1
36,65:1
36,66:1
36,67:1
37,16:1
37,21:2
37,30:1
37,38:1
37,54:1
37,55:2
37,56:1
37,57:1
37,58:2
37,59:1
37,61:2
37,62:2
37,63:2
37,64:1
37,65:1
37,66:1
37,67:1
38,16:2
38,21:1
38,39:1
38,55:1
38,56:2
38,57:2
38,58:1
38,59:2
38,60:1
38,61:1
38,62:1
38,63:1
38,64:2
39,16:3
39,30:1
39,41:2
39,42:2
39,54:1
39,56:3
39,57:3
39,59:3
39,60:2
39,64:3
39,65:1
39,66:1
39,67:1
40,16:3
40,30:1
40,41:2
40,42:2
40,44:2
40,46:3
40,47:3
40,48:3
40,49:2
40,50:3
40,51:3
40,54:1
40,56:3
40,57:3
40,59:3
40,60:2
40,64:3
40,65:1
40,66:1
40,67:1
41,16:1
41,21:2
41,30:1
41,40:2
41,43:2
41,45:2
41,46:1
41,47:1
41,48:1
41,50:1
41,51:1
41,52:1
41,53:1
41,54:1
41,55:2
41,56:1
41,57:1
41,58:2
41,59:1
41,61:2
41,62:2
41,63:2
41,64:1
41,65:1
41,66:1
41,67:1
42,16:1
42,21:2
42,30:1
42,40:2
42,43:2
42,45:2
42,46:1
42,47:1
42,48:1
42,50:1
42,51:1
42,52:1
42,53:1
42,54:1
42,55:2
42,56:1
42,57:1
42,58:2
42,59:1
42,61:2
42,62:2
42,63:2
42,64:1
42,65:1
42,66:1
42,67:1
43,16:3
43,30:1
43,41:2
43,42:2
43,44:2
43,54:1
43,56:3
43,57:3
43,59:3
43,60:2
43,64:3
43,65:1
43,66:1
43,67:1
44,16:1
44,21:2
44,30:1
44,43:2
44,45:2
44,46:1
44,47:1
44,48:1
44,50:1
44,51:1
44,52:1
44,54:1
44,55:2
44,56:1
44,57:1
44,58:2
44,59:1
44,61:2
44,62:2
44,63:2
44,64:1
44,65:1
44,66:1
44,67:1
45,16:3
45,30:1
45,41:2
45,42:2
45,44:2
45,46:3
45,54:1
45,56:3
45,57:3
45,59:3
45,60:2
45,64:3
45,65:1
45,66:1
45,67:1
46,21:3
46,30:2
46,40:3
46,41:1
46,42:1
46,44:1
46,54:2
46,55:3
46,58:3
46,60:1
46,61:3
46,62:3
46,63:3
46,65:2
46,66:2
46,67:2
47,21:3
47,30:2
47,40:3
47,41:1
47,42:1
47,44:1
47,49:1
47,54:2
47,55:3
47,58:3
47,60:1
47,61:3
47,62:3
47,63:3
47,65:2
47,66:2
47,67:2
48,21:3
48,30:2
48,40:3
48,41:1
48,42:1
48,44:1
48,49:1
48,54:2
48,55:3
48,58:3
48,60:1
48,61:3
48,62:3
48,63:3
48,65:2
48,66:2
48,67:2
48,68:3
48,69:2
48,72:3
48,74:2
48,75:3
48,76:2
48,77:2
48,78:2
48,80:3
48,81:2
48,82:2
48,83:2
48,84:2
48,86:3
48,87:3
48,88:1
49,16:1
49,21:2
49,30:1
49,40:2
49,48:1
49,50:1
49,54:1
49,55:2
49,56:1
49,57:1
49,58:2
49,59:1
49,61:2
49,62:2
49,63:2
49,64:1
49,65:1
49,66:1
49,67:1
50,21:3
50,30:2
50,40:3
50,41:1
50,42:1
50,44:1
50,54:2
50,55:3
50,58:3
50,60:1
50,61:3
50,62:3
50,63:3
50,65:2
50,66:2
50,67:2
51,21:3
51,30:2
51,40:3
51,41:1
51,42:1
51,44:1
51,54:2
51,55:3
51,58:3
51,60:1
51,61:3
51,62:3
51,63:3
51,65:2
51,66:2
51,67:2
52,21:3
52,30:2
52,41:1
52,42:1
52,54:2
52,55:3
52,58:3
52,60:1
52,61:3
52,62:3
52,63:3
52,65:2
52,66:2
52,67:2
53,21:3
53,30:2
53,54:2
53,55:3
53,58:3
53,60:1
53,61:3
53,62:3
53,63:3
53,65:2
53,66:2
53,67:2
53,68:3
53,69:2
54,19:1
54,22:1
54,23:2
54,24:2
54,26:1
54,27:1
54,31:1
54,32:2
54,33:2
54,34:2
54,35:1
54,36:1
54,37:1
54,39:1
54,40:1
54,41:1
54,42:1
54,43:1
54,44:1
54,45:1
54,46:2
54,47:2
54,48:2
54,49:1
54,50:2
54,51:2
54,52:2
54,53:2
54,55:1
54,68:1
54,70:2
54,71:2
54,72:1
54,80:1
55,19:2
55,22:2
55,23:3
55,24:3
55,25:1
55,28:1
55,29:1
55,32:3
55,33:3
55,34:3
55,36:2
55,37:2
55,38:1
55,41:2
55,42:2
55,44:2
55,46:3
55,47:3
55,48:3
55,49:2
55,50:3
55,51:3
55,52:3
55,53:3
55,56:3
55,69:1
55,70:3
55,71:3
56,19:1
56,22:1
56,25:2
56,26:3
56,27:3
56,28:2
56,29:2
56,31:3
56,35:3
56,36:1
56,37:1
56,38:2
56,39:3
56,40:3
56,41:1
56,42:1
56,43:3
56,44:1
56,45:3
56,49:1
56,68:3
56,69:2
56,72:3
56,80:3
57,19:1
57,22:1
57,25:2
57,26:3
57,27:3
57,28:2
57,29:2
57,31:3
57,35:3
57,36:1
57,37:1
57,38:2
57,39:3
57,40:3
57,41:1
57,42:1
57,43:3
57,44:1
57,45:3
57,49:1
57,58:3
57,60:1
57,61:3
57,62:3
57,63:3
57,65:2
57,66:2
57,68:3
57,69:2
57,72:3
57,80:3
58,19:2
58,22:2
58,23:3
58,24:3
58,25:1
58,28:1
58,29:1
58,32:3
58,33:3
58,34:3
58,36:2
58,37:2
58,38:1
58,41:2
58,42:2
58,44:2
58,46:3
58,47:3
58,48:3
58,49:2
58,50:3
58,51:3
58,52:3
58,53:3
58,59:3
58,60:2
58,64:3
58,65:1
58,66:1
58,67:1
58,69:1
58,70:3
58,71:3
59,19:1
59,22:1
59,25:2
59,26:3
59,27:3
59,28:2
59,29:2
59,31:3
59,35:3
59,36:1
59,37:1
59,38:2
59,39:3
59,40:3
59,41:1
59,42:1
59,43:3
59,44:1
59,45:3
59,49:1
59,58:3
59,60:1
59,61:3
59,62:3
59,63:3
59,65:2
59,66:2
59,67:2
59,68:3
59,69:2
59,72:3
59,80:3
60,23:1
60,24:1
60,25:1
60,26:2
60,27:2
60,28:1
60,29:1
60,31:2
60,32:1
60,33:1
60,34:1
60,35:2
60,38:1
60,39:2
60,40:2
60,43:2
60,45:2
60,46:1
60,47:1
60,48:1
60,50:1
60,51:1
60,52:1
60,53:1
60,58:2
60,59:1
60,61:2
60,62:2
60,63:2
60,64:1
60,65:1
60,66:1
60,67:1
60,68:2
60,69:1
60,70:1
60,71:1
60,72:2
60,80:2
61,19:2
61,22:2
61,23:3
61,24:3
61,25:1
61,28:1
61,29:1
61,32:3
61,33:3
61,34:3
61,36:2
61,37:2
61,38:1
61,41:2
61,42:2
61,44:2
61,46:3
61,47:3
61,48:3
61,49:2
61,50:3
61,51:3
61,52:3
61,53:3
61,59:3
61,60:2
61,64:3
61,65:1
61,66:1
61,67:1
61,69:1
61,70:3
61,71:3
62,19:2
62,22:2
62,23:3
62,24:3
62,25:1
62,28:1
62,29:1
62,32:3
62,33:3
62,34:3
62,36:2
62,37:2
62,38:1
62,41:2
62,42:2
62,44:2
62,46:3
62,47:3
62,48:3
62,49:2
62,50:3
62,51:3
62,52:3
62,53:3
62,59:3
62,60:2
62,64:3
62,65:1
62,66:1
62,67:1
62,69:1
62,70:3
62,71:3
63,19:2
63,22:2
63,23:3
63,24:3
63,25:1
63,28:1
63,29:1
63,32:3
63,33:3
63,34:3
63,36:2
63,37:2
63,38:1
63,41:2
63,42:2
63,44:2
63,46:3
63,47:3
63,48:3
63,49:2
63,50:3
63,51:3
63,52:3
63,53:3
63,59:3
63,60:2
63,64:3
63,65:1
63,66:1
63,67:1
63,69:1
63,70:3
63,71:3
64,19:1
64,22:1
64,25:2
64,26:3
64,27:3
64,28:2
64,29:2
64,31:3
64,35:3
64,36:1
64,37:1
64,38:2
64,39:3
64,40:3
64,41:1
64,42:1
64,43:3
64,44:1
64,45:3
64,49:1
64,58:3
64,60:1
64,61:3
64,62:3
64,63:3
64,65:2
64,66:2
64,67:2
64,68:3
64,69:2
64,72:3
64,80:3
65,19:1
65,22:1
65,23:2
65,24:2
65,26:1
65,27:1
65,31:1
65,32:2
65,33:2
65,34:2
65,35:1
65,36:1
65,37:1
65,39:1
65,40:1
65,41:1
65,42:1
65,43:1
65,44:1
65,45:1
65,46:2
65,47:2
65,48:2
65,49:1
65,50:2
65,51:2
65,52:2
65,53:2
65,58:1
65,59:2
65,60:1
65,61:1
65,62:1
65,63:1
65,64:2
65,68:1
65,70:2
65,71:2
65,72:1
65,80:1
66,19:1
66,22:1
66,23:2
66,24:2
66,26:1
66,27:1
66,31:1
66,32:2
66,33:2
66,34:2
66,35:1
66,36:1
66,37:1
66,39:1
66,40:1
66,41:1
66,42:1
66,43:1
66,44:1
66,45:1
66,46:2
66,47:2
66,48:2
66,49:1
66,50:2
66,51:2
66,52:2
66,53:2
66,58:1
66,59:2
66,60:1
66,61:1
66,62:1
66,63:1
66,64:2
66,68:1
66,70:2
66,71:2
66,72:1
66,80:1
67,19:1
67,22:1
67,23:2
67,24:2
67,26:1
67,27:1
67,31:1
67,32:2
67,33:2
67,34:2
67,35:1
67,36:1
67,37:1
67,39:1
67,40:1
67,41:1
67,42:1
67,43:1
67,44:1
67,45:1
67,46:2
67,47:2
67,48:2
67,49:1
67,50:2
67,51:2
67,52:2
67,53:2
67,68:1
67,70:2
67,71:2
67,72:1
67,73:2
67,80:1
68,16:3
68,30:1
68,48:3
68,54:1
68,56:3
68,57:3
68,59:3
68,60:2
68,64:3
68,65:1
68,66:1
68,67:1
68,69:1
68,70:3
68,71:3
68,73:3
68,74:1
68,76:1
68,77:1
69,16:2
69,21:1
69,48:2
69,55:1
69,56:2
69,57:2
69,58:1
69,59:2
69,60:1
69,61:1
69,62:1
69,63:1
69,64:2
69,68:1
69,70:2
69,71:2
69,72:1
69,73:2
69,75:1
70,21:3
70,30:2
70,54:2
70,55:3
70,58:3
70,60:1
70,61:3
70,62:3
70,63:3
70,65:2
70,66:2
70,67:2
70,68:3
70,69:2
70,72:3
70,74:2
70,75:3
70,76:2
70,77:2
71,21:3
71,30:2
71,54:2
71,55:3
71,58:3
71,60:1
71,61:3
71,62:3
71,63:3
71,65:2
71,66:2
71,67:2
71,68:3
71,69:2
71,72:3
71,80:3
72,16:3
72,30:1
72,48:3
72,54:1
72,56:3
72,57:3
72,59:3
72,60:2
72,64:3
72,65:1
72,66:1
72,67:1
72,71:3
72,73:3
72,74:1
72,76:1
72,77:1
72,78:1
73,68:3
73,69:2
73,72:3
73,74:2
73,80:3
74,48:2
74,68:1
74,70:2
74,72:1
74,75:1
74,80:1
75,48:3
75,69:1
75,70:3
75,76:1
75,77:1
76,48:2
76,68:1
76,70:2
76,72:1
76,75:1
76,79:2
76,80:1
77,48:2
77,68:1
77,70:2
77,72:1
77,80:1
78,48:2
78,79:2
78,80:1
79,76:2
79,80:3
79,81:2
80,16:3
80,30:1
80,48:3
80,54:1
80,56:3
80,57:3
80,59:3
80,60:2
80,64:3
80,65:1
80,66:1
80,67:1
80,71:3
80,73:3
80,74:1
80,76:1
80,77:1
80,78:1
80,79:3
80,81:1
81,48:2
81,85:2
82,48:2
82,85:2
83,48:2
83,85:2
83,86:1
84,48:2
84,85:2
84,86:1
85,82:2
85,83:2
85,84:2
85,86:3
86,48:3
87,48:3
87,88:2
87,89:3
88,48:1
88,89:1
89,88:1

<setup times backward>
3,1:1
3,2:1
3,30:1
4,1:1
4,2:1
4,30:1
5,1:1
5,2:1
5,6:2
5,7:2
5,8:2
5,9:1
5,11:1
5,12:1
5,13:1
5,30:1
8,16:1
9,6:1
9,7:1
9,8:1
9,14:1
9,16:2
10,6:1
10,7:1
10,8:1
11,6:1
11,7:1
11,8:1
12,6:1
12,7:1
12,8:1
13,6:1
13,7:1
13,8:1
15,6:1
15,7:1
15,8:1
15,14:1
15,16:2
17,6:1
17,7:1
17,8:1
17,14:1
17,16:2
19,16:1
19,18:1
19,56:1
19,57:1
19,59:1
19,64:1
20,1:1
20,2:1
20,6:2
20,7:2
20,8:2
20,9:1
20,10:1
20,11:1
20,12:1
20,13:1
20,14:2
20,15:1
20,16:3
20,17:1
20,18:3
20,19:2
20,22:2
20,23:3
20,24:3
20,25:1
20,30:1
21,1:1
21,2:1
21,6:2
21,7:2
21,8:2
21,9:1
21,10:1
21,11:1
21,12:1
21,13:1
21,14:2
21,15:1
21,16:3
21,17:1
21,18:3
21,19:2
21,22:2
21,23:3
21,24:3
21,25:1
21,28:1
21,29:1
21,30:1
21,32:3
21,33:3
21,34:3
21,36:2
21,37:2
21,38:1
21,41:2
21,42:2
21,44:2
21,46:3
21,47:3
21,48:3
21,49:2
21,50:3
21,51:3
21,52:3
21,53:3
21,69:1
21,70:3
21,71:3
22,16:1
22,18:1
22,56:1
22,57:1
22,59:1
22,64:1
25,6:1
25,7:1
25,8:1
25,14:1
25,16:2
25,18:2
25,19:1
25,22:1
25,23:2
25,24:2
25,56:2
25,57:2
25,59:2
25,60:1
25,64:2
26,1:1
26,2:1
26,6:2
26,7:2
26,8:2
26,9:1
26,10:1
26,11:1
26,12:1
26,13:1
26,14:2
26,15:1
26,16:3
26,17:1
26,18:3
26,19:2
26,22:2
26,23:3
26,24:3
26,25:1
26,28:1
26,29:1
26,30:1
26,32:3
26,33:3
26,34:3
26,36:2
26,54:1
26,56:3
26,57:3
26,59:3
26,60:2
26,64:3
26,65:1
26,66:1
26,67:1
27,1:1
27,2:1
27,6:2
27,7:2
27,8:2
27,9:1
27,10:1
27,11:1
27,12:1
27,13:1
27,14:2
27,15:1
27,16:3
27,17:1
27,18:3
27,19:2
27,22:2
27,23:3
27,24:3
27,25:1
27,28:1
27,29:1
27,30:1
27,32:3
27,54:1
27,56:3
27,57:3
27,59:3
27,60:2
27,64:3
27,65:1
27,66:1
27,67:1
28,6:1
28,7:1
28,8:1
28,14:1
28,16:2
28,18:2
28,19:1
28,22:1
28,23:2
28,24:2
28,56:2
28,57:2
28,59:2
28,60:1
28,64:2
29,6:1
29,7:1
29,8:1
29,14:1
29,16:2
29,18:2
29,19:1
29,22:1
29,23:2
29,24:2
29,56:2
29,57:2
29,59:2
29,60:1
29,64:2
30,6:1
30,7:1
30,8:1
30,14:1
30,16:2
30,18:2
30,19:1
30,22:1
30,23:2
30,24:2
30,32:2
30,33:2
30,34:2
30,36:1
30,37:1
30,41:1
30,42:1
30,44:1
30,46:2
30,47:2
30,48:2
30,49:1
30,50:2
30,51:2
30,52:2
30,53:2
30,70:2
30,71:2
31,1:1
31,2:1
31,6:2
31,7:2
31,8:2
31,9:1
31,10:1
31,11:1
31,12:1
31,13:1
31,14:2
31,15:1
31,16:3
31,17:1
31,18:3
31,19:2
31,22:2
31,23:3
31,24:3
31,25:1
31,28:1
31,29:1
31,30:1
31,54:1
31,56:3
31,57:3
31,59:3
31,60:2
31,64:3
31,65:1
31,66:1
31,67:1
35,1:1
35,2:1
35,6:2
35,7:2
35,8:2
35,9:1
35,10:1
35,11:1
35,12:1
35,13:1
35,14:2
35,15:1
35,16:3
35,17:1
35,18:3
35,19:2
35,22:2
35,23:3
35,24:3
35,25:1
35,28:1
35,29:1
35,30:1
35,32:3
35,33:3
35,34:3
35,54:1
35,56:3
35,57:3
35,59:3
35,60:2
35,64:3
35,65:1
35,66:1
35,67:1
36,16:1
36,18:1
36,23:1
36,24:1
36,32:1
36,33:1
36,34:1
36,56:1
36,57:1
36,59:1
36,64:1
37,16:1
37,18:1
37,23:1
37,24:1
37,32:1
37,33:1
37,34:1
37,56:1
37,57:1
37,59:1
37,64:1
38,6:1
38,7:1
38,8:1
38,14:1
38,16:2
38,18:2
38,19:1
38,22:1
38,23:2
38,24:2
38,32:2
38,33:2
38,34:2
38,36:1
38,37:1
38,56:2
38,57:2
38,59:2
38,60:1
38,64:2
39,1:1
39,2:1
39,6:2
39,7:2
39,8:2
39,9:1
39,10:1
39,11:1
39,12:1
39,13:1
39,14:2
39,15:1
39,16:3
39,17:1
39,18:3
39,19:2
39,22:2
39,23:3
39,24:3
39,25:1
39,28:1
39,29:1
39,30:1
39,32:3
39,33:3
39,34:3
39,36:2
39,37:2
39,38:1
39,54:1
39,56:3
39,57:3
39,59:3
39,60:2
39,64:3
39,65:1
39,66:1
39,67:1
40,1:1
40,2:1
40,6:2
40,7:2
40,8:2
40,9:1
40,10:1
40,11:1
40,12:1
40,13:1
40,14:2
40,15:1
40,16:3
40,17:1
40,18:3
40,19:2
40,22:2
40,23:3
40,24:3
40,25:1
40,28:1
40,29:1
40,30:1
40,32:3
40,33:3
40,34:3
40,36:2
40,37:2
40,38:1
40,41:2
40,42:2
40,46:3
40,47:3
40,48:3
40,49:2
40,50:3
40,51:3
40,54:1
40,56:3
40,57:3
40,59:3
40,60:2
40,64:3
40,65:1
40,66:1
40,67:1
41,16:1
41,18:1
41,23:1
41,24:1
41,32:1
41,33:1
41,34:1
41,46:1
41,47:1
41,48:1
41,50:1
41,51:1
41,52:1
41,56:1
41,57:1
41,59:1
41,64:1
42,16:1
42,18:1
42,23:1
42,24:1
42,32:1
42,33:1
42,34:1
42,46:1
42,47:1
42,48:1
42,50:1
42,51:1
42,52:1
42,56:1
42,57:1
42,59:1
42,64:1
43,1:1
43,2:1
43,6:2
43,7:2
43,8:2
43,9:1
43,10:1
43,11:1
43,12:1
43,13:1
43,14:2
43,15:1
43,16:3
43,17:1
43,18:3
43,19:2
43,22:2
43,23:3
43,24:3
43,25:1
43,28:1
43,29:1
43,30:1
43,32:3
43,33:3
43,34:3
43,36:2
43,37:2
43,38:1
43,41:2
43,42:2
43,44:2
43,54:1
43,56:3
43,57:3
43,59:3
43,60:2
43,64:3
43,65:1
43,66:1
43,67:1
44,16:1
44,18:1
44,23:1
44,24:1
44,32:1
44,33:1
44,34:1
44,46:1
44,47:1
44,48:1
44,50:1
44,51:1
44,56:1
44,57:1
44,59:1
44,64:1
45,1:1
45,2:1
45,6:2
45,7:2
45,8:2
45,9:1
45,10:1
45,11:1
45,12:1
45,13:1
45,14:2
45,15:1
45,16:3
45,17:1
45,18:3
45,19:2
45,22:2
45,23:3
45,24:3
45,25:1
45,28:1
45,29:1
45,30:1
45,32:3
45,33:3
45,34:3
45,36:2
45,37:2
45,38:1
45,41:2
45,42:2
45,44:2
45,54:1
45,56:3
45,57:3
45,59:3
45,60:2
45,64:3
45,65:1
45,66:1
45,67:1
49,16:1
49,18:1
49,23:1
49,24:1
49,32:1
49,33:1
49,34:1
49,46:1
49,47:1
49,48:1
49,56:1
49,57:1
49,59:1
49,64:1
54,6:1
54,7:1
54,8:1
54,14:1
54,16:2
54,18:2
54,19:1
54,22:1
54,23:2
54,24:2
54,32:2
54,33:2
54,34:2
54,36:1
54,37:1
54,41:1
54,42:1
54,44:1
54,46:2
54,47:2
54,48:2
54,49:1
54,50:2
54,51:2
54,52:2
54,53:2
54,70:2
54,71:2
55,1:1
55,2:1
55,6:2
55,7:2
55,8:2
55,9:1
55,10:1
55,11:1
55,12:1
55,13:1
55,14:2
55,15:1
55,16:3
55,17:1
55,18:3
55,19:2
55,22:2
55,23:3
55,24:3
55,25:1
55,28:1
55,29:1
55,30:1
55,32:3
55,33:3
55,34:3
55,36:2
55,37:2
55,38:1
55,41:2
55,42:2
55,44:2
55,46:3
55,47:3
55,48:3
55,49:2
55,50:3
55,51:3
55,52:3
55,53:3
55,54:1
55,69:1
55,70:3
55,71:3
58,1:1
58,2:1
58,6:2
58,7:2
58,8:2
58,9:1
58,10:1
58,11:1
58,12:1
58,13:1
58,14:2
58,15:1
58,16:3
58,17:1
58,18:3
58,19:2
58,22:2
58,23:3
58,24:3
58,25:1
58,28:1
58,29:1
58,30:1
58,32:3
58,33:3
58,34:3
58,36:2
58,37:2
58,38:1
58,41:2
58,42:2
58,44:2
58,46:3
58,47:3
58,48:3
58,49:2
58,50:3
58,51:3
58,52:3
58,53:3
58,54:1
58,56:3
58,57:3
58,59:3
58,60:2
58,64:3
58,65:1
58,66:1
58,69:1
58,70:3
58,71:3
60,16:1
60,18:1
60,23:1
60,24:1
60,32:1
60,33:1
60,34:1
60,46:1
60,47:1
60,48:1
60,50:1
60,51:1
60,52:1
60,53:1
60,56:1
60,57:1
60,59:1
60,64:1
60,70:1
60,71:1
61,1:1
61,2:1
61,6:2
61,7:2
61,8:2
61,9:1
61,10:1
61,11:1
61,12:1
61,13:1
61,14:2
61,15:1
61,16:3
61,17:1
61,18:3
61,19:2
61,22:2
61,23:3
61,24:3
61,25:1
61,28:1
61,29:1
61,30:1
61,32:3
61,33:3
61,34:3
61,36:2
61,37:2
61,38:1
61,41:2
61,42:2
61,44:2
61,46:3
61,47:3
61,48:3
61,49:2
61,50:3
61,51:3
61,52:3
61,53:3
61,54:1
61,56:3
61,57:3
61,59:3
61,60:2
61,64:3
61,65:1
61,66:1
61,69:1
61,70:3
61,71:3
62,1:1
62,2:1
62,6:2
62,7:2
62,8:2
62,9:1
62,10:1
62,11:1
62,12:1
62,13:1
62,14:2
62,15:1
62,16:3
62,17:1
62,18:3
62,19:2
62,22:2
62,23:3
62,24:3
62,25:1
62,28:1
62,29:1
62,30:1
62,32:3
62,33:3
62,34:3
62,36:2
62,37:2
62,38:1
62,41:2
62,42:2
62,44:2
62,46:3
62,47:3
62,48:3
62,49:2
62,50:3
62,51:3
62,52:3
62,53:3
62,54:1
62,56:3
62,57:3
62,59:3
62,60:2
62,64:3
62,65:1
62,66:1
62,69:1
62,70:3
62,71:3
63,1:1
63,2:1
63,6:2
63,7:2
63,8:2
63,9:1
63,10:1
63,11:1
63,12:1
63,13:1
63,14:2
63,15:1
63,16:3
63,17:1
63,18:3
63,19:2
63,22:2
63,23:3
63,24:3
63,25:1
63,28:1
63,29:1
63,30:1
63,32:3
63,33:3
63,34:3
63,36:2
63,37:2
63,38:1
63,41:2
63,42:2
63,44:2
63,46:3
63,47:3
63,48:3
63,49:2
63,50:3
63,51:3
63,52:3
63,53:3
63,54:1
63,56:3
63,57:3
63,59:3
63,60:2
63,64:3
63,65:1
63,66:1
63,69:1
63,70:3
63,71:3
65,6:1
65,7:1
65,8:1
65,14:1
65,16:2
65,18:2
65,19:1
65,22:1
65,23:2
65,24:2
65,32:2
65,33:2
65,34:2
65,36:1
65,37:1
65,41:1
65,42:1
65,44:1
65,46:2
65,47:2
65,48:2
65,49:1
65,50:2
65,51:2
65,52:2
65,53:2
65,56:2
65,57:2
65,59:2
65,60:1
65,64:2
65,70:2
65,71:2
66,6:1
66,7:1
66,8:1
66,14:1
66,16:2
66,18:2
66,19:1
66,22:1
66,23:2
66,24:2
66,32:2
66,33:2
66,34:2
66,36:1
66,37:1
66,41:1
66,42:1
66,44:1
66,46:2
66,47:2
66,48:2
66,49:1
66,50:2
66,51:2
66,52:2
66,53:2
66,56:2
66,57:2
66,59:2
66,60:1
66,64:2
66,70:2
66,71:2
67,6:1
67,7:1
67,8:1
67,14:1
67,16:2
67,18:2
67,19:1
67,22:1
67,23:2
67,24:2
67,32:2
67,33:2
67,34:2
67,36:1
67,37:1
67,41:1
67,42:1
67,44:1
67,46:2
67,47:2
67,48:2
67,49:1
67,50:2
67,51:2
67,52:2
67,53:2
67,56:2
67,57:2
67,59:2
67,60:1
67,64:2
67,70:2
67,71:2
68,1:1
68,2:1
68,6:2
68,7:2
68,8:2
68,9:1
68,10:1
68,11:1
68,12:1
68,13:1
68,14:2
68,15:1
68,16:3
68,17:1
68,18:3
68,19:2
68,22:2
68,23:3
68,24:3
68,25:1
68,28:1
68,29:1
68,30:1
68,32:3
68,33:3
68,34:3
68,36:2
68,37:2
68,38:1
68,41:2
68,42:2
68,44:2
68,46:3
68,47:3
68,48:3
68,49:2
68,50:3
68,51:3
68,52:3
68,53:3
68,54:1
68,56:3
68,57:3
68,59:3
68,60:2
68,64:3
68,65:1
68,66:1
68,67:1
68,69:1
68,70:3
68,71:3
68,73:3
68,74:1
68,76:1
68,77:1
69,6:1
69,7:1
69,8:1
69,14:1
69,16:2
69,18:2
69,19:1
69,22:1
69,23:2
69,24:2
69,32:2
69,33:2
69,34:2
69,36:1
69,37:1
69,41:1
69,42:1
69,44:1
69,46:2
69,47:2
69,48:2
69,49:1
69,50:2
69,51:2
69,52:2
69,53:2
69,56:2
69,57:2
69,59:2
69,60:1
69,64:2
69,70:2
69,71:2
69,73:2
72,1:1
72,2:1
72,6:2
72,7:2
72,8:2
72,9:1
72,10:1
72,11:1
72,12:1
72,13:1
72,14:2
72,15:1
72,16:3
72,17:1
72,18:3
72,19:2
72,22:2
72,23:3
72,24:3
72,25:1
72,28:1
72,29:1
72,30:1
72,32:3
72,33:3
72,34:3
72,36:2
72,37:2
72,38:1
72,41:2
72,42:2
72,44:2
72,46:3
72,47:3
72,48:3
72,49:2
72,50:3
72,51:3
72,52:3
72,53:3
72,54:1
72,56:3
72,57:3
72,59:3
72,60:2
72,64:3
72,65:1
72,66:1
72,67:1
72,69:1
72,70:3
72,71:3
72,73:3
72,74:1
72,76:1
72,77:1
74,6:1
74,7:1
74,8:1
74,14:1
74,16:2
74,18:2
74,19:1
74,22:1
74,23:2
74,24:2
74,32:2
74,33:2
74,34:2
74,36:1
74,37:1
74,41:1
74,42:1
74,44:1
74,46:2
74,47:2
74,48:2
74,49:1
74,50:2
74,51:2
74,52:2
74,53:2
74,56:2
74,57:2
74,59:2
74,60:1
74,64:2
74,70:2
74,71:2
74,73:2
75,1:1
75,2:1
75,6:2
75,7:2
75,8:2
75,9:1
75,10:1
75,11:1
75,12:1
75,13:1
75,14:2
75,15:1
75,16:3
75,17:1
75,18:3
75,19:2
75,22:2
75,23:3
75,24:3
75,25:1
75,28:1
75,29:1
75,30:1
75,32:3
75,33:3
75,34:3
75,36:2
75,37:2
75,38:1
75,41:2
75,42:2
75,44:2
75,46:3
75,47:3
75,48:3
75,49:2
75,50:3
75,51:3
75,52:3
75,53:3
75,54:1
75,56:3
75,57:3
75,59:3
75,60:2
75,64:3
75,65:1
75,66:1
75,67:1
75,69:1
75,70:3
75,71:3
75,73:3
75,74:1
75,76:1
76,6:1
76,7:1
76,8:1
76,14:1
76,16:2
76,18:2
76,19:1
76,22:1
76,23:2
76,24:2
76,32:2
76,33:2
76,34:2
76,36:1
76,37:1
76,41:1
76,42:1
76,44:1
76,46:2
76,47:2
76,48:2
76,49:1
76,50:2
76,51:2
76,52:2
76,53:2
76,56:2
76,57:2
76,59:2
76,60:1
76,64:2
76,70:2
76,71:2
76,73:2
76,79:2
77,6:1
77,7:1
77,8:1
77,14:1
77,16:2
77,18:2
77,19:1
77,22:1
77,23:2
77,24:2
77,32:2
77,33:2
77,34:2
77,36:1
77,37:1
77,41:1
77,42:1
77,44:1
77,46:2
77,47:2
77,48:2
77,49:1
77,50:2
77,51:2
77,52:2
77,53:2
77,56:2
77,57:2
77,59:2
77,60:1
77,64:2
77,70:2
77,71:2
77,73:2
78,6:1
78,7:1
78,8:1
78,14:1
78,16:2
78,18:2
78,19:1
78,22:1
78,23:2
78,24:2
78,32:2
78,33:2
78,34:2
78,36:1
78,37:1
78,41:1
78,42:1
78,44:1
78,46:2
78,47:2
78,48:2
78,49:1
78,50:2
78,51:2
78,52:2
78,53:2
78,56:2
78,57:2
78,59:2
78,60:1
78,64:2
78,70:2
78,71:2
78,73:2
80,1:1
80,2:1
80,6:2
80,7:2
80,8:2
80,9:1
80,10:1
80,11:1
80,12:1
80,13:1
80,14:2
80,15:1
80,16:3
80,17:1
80,18:3
80,19:2
80,22:2
80,23:3
80,24:3
80,25:1
80,28:1
80,29:1
80,30:1
80,32:3
80,33:3
80,34:3
80,36:2
80,37:2
80,38:1
80,41:2
80,42:2
80,44:2
80,46:3
80,47:3
80,48:3
80,49:2
80,50:3
80,51:3
80,52:3
80,53:3
80,54:1
80,56:3
80,57:3
80,59:3
80,60:2
80,64:3
80,65:1
80,66:1
80,67:1
80,69:1
80,70:3
80,71:3
80,73:3
80,74:1
80,76:1
80,77:1
80,78:1
80,79:3
81,6:1
81,7:1
81,8:1
81,14:1
81,16:2
81,18:2
81,19:1
81,22:1
81,23:2
81,24:2
81,32:2
81,33:2
81,34:2
81,36:1
81,37:1
81,41:1
81,42:1
81,44:1
81,46:2
81,47:2
81,48:2
81,49:1
81,50:2
81,51:2
81,52:2
81,53:2
81,56:2
81,57:2
81,59:2
81,60:1
81,64:2
81,70:2
81,71:2
81,73:2
81,79:2
82,6:1
82,7:1
82,8:1
82,14:1
82,16:2
82,18:2
82,19:1
82,22:1
82,23:2
82,24:2
82,32:2
82,33:2
82,34:2
82,36:1
82,37:1
82,41:1
82,42:1
82,44:1
82,46:2
82,47:2
82,48:2
82,49:1
82,50:2
82,51:2
82,52:2
82,53:2
82,56:2
82,57:2
82,59:2
82,60:1
82,64:2
82,70:2
82,71:2
82,73:2
82,79:2
82,85:2
83,6:1
83,7:1
83,8:1
83,14:1
83,16:2
83,18:2
83,19:1
83,22:1
83,23:2
83,24:2
83,32:2
83,33:2
83,34:2
83,36:1
83,37:1
83,41:1
83,42:1
83,44:1
83,46:2
83,47:2
83,48:2
83,49:1
83,50:2
83,51:2
83,52:2
83,53:2
83,56:2
83,57:2
83,59:2
83,60:1
83,64:2
83,70:2
83,71:2
83,73:2
83,79:2
83,85:2
84,6:1
84,7:1
84,8:1
84,14:1
84,16:2
84,18:2
84,19:1
84,22:1
84,23:2
84,24:2
84,32:2
84,33:2
84,34:2
84,36:1
84,37:1
84,41:1
84,42:1
84,44:1
84,46:2
84,47:2
84,48:2
84,49:1
84,50:2
84,51:2
84,52:2
84,53:2
84,56:2
84,57:2
84,59:2
84,60:1
84,64:2
84,70:2
84,71:2
84,73:2
84,79:2
84,85:2
86,1:1
86,2:1
86,6:2
86,7:2
86,8:2
86,9:1
86,10:1
86,11:1
86,12:1
86,13:1
86,14:2
86,15:1
86,16:3
86,17:1
86,18:3
86,19:2
86,22:2
86,23:3
86,24:3
86,25:1
86,28:1
86,29:1
86,30:1
86,32:3
86,33:3
86,34:3
86,36:2
86,37:2
86,38:1
86,41:2
86,42:2
86,44:2
86,46:3
86,47:3
86,48:3
86,49:2
86,50:3
86,51:3
86,52:3
86,53:3
86,54:1
86,56:3
86,57:3
86,59:3
86,60:2
86,64:3
86,65:1
86,66:1
86,67:1
86,69:1
86,70:3
86,71:3
86,73:3
86,74:1
86,76:1
86,77:1
86,78:1
86,79:3
86,81:1
86,82:1
86,83:1
86,84:1
86,85:3
87,1:1
87,2:1
87,6:2
87,7:2
87,8:2
87,9:1
87,10:1
87,11:1
87,12:1
87,13:1
87,14:2
87,15:1
87,16:3
87,17:1
87,18:3
87,19:2
87,22:2
87,23:3
87,24:3
87,25:1
87,28:1
87,29:1
87,30:1
87,32:3
87,33:3
87,34:3
87,36:2
87,37:2
87,38:1
87,41:2
87,42:2
87,44:2
87,46:3
87,47:3
87,48:3
87,49:2
87,50:3
87,51:3
87,52:3
87,53:3
87,54:1
87,56:3
87,57:3
87,59:3
87,60:2
87,64:3
87,65:1
87,66:1
87,67:1
87,69:1
87,70:3
87,71:3
87,73:3
87,74:1
87,76:1
87,77:1
87,78:1
87,79:3
87,81:1
87,82:1
87,83:1
87,84:1
87,85:3
88,16:1
88,18:1
88,23:1
88,24:1
88,32:1
88,33:1
88,34:1
88,46:1
88,47:1
88,48:1
88,50:1
88,51:1
88,52:1
88,53:1
88,56:1
88,57:1
88,59:1
88,64:1
88,70:1
88,71:1
88,73:1
88,79:1
88,85:1
88,89:1

<end>

<optimal SALBP-1 value>
40


<rand seed>
467321153

